(set-info :smt-lib-version 2.6)
(set-logic LIA)
(set-info
  :source |
 Generated by PSyCO 0.1
 More info in N. P. Lopes and J. Monteiro. Weakest Precondition Synthesis for
 Compiler Optimizations, VMCAI'14.
|)
(set-info :category "industrial")
(set-info :status sat)
(declare-fun W_S1_V4 () Bool)
(declare-fun R_S1_V1 () Bool)
(declare-fun R_S1_V3 () Bool)
(declare-fun R_S1_V5 () Bool)
(declare-fun R_S1_V4 () Bool)
(declare-fun W_S1_V3 () Bool)
(declare-fun W_S1_V5 () Bool)
(declare-fun W_S2_V1 () Bool)
(declare-fun W_S2_V2 () Bool)
(declare-fun W_S1_V1 () Bool)
(declare-fun W_S1_V2 () Bool)
(declare-fun R_E1_V3 () Bool)
(declare-fun R_E1_V5 () Bool)
(declare-fun R_E1_V4 () Bool)
(declare-fun R_E1_V1 () Bool)
(declare-fun W_S2_V3 () Bool)
(declare-fun W_S2_V4 () Bool)
(declare-fun W_S2_V5 () Bool)
(declare-fun R_S2_V2 () Bool)
(declare-fun R_S2_V3 () Bool)
(declare-fun R_S2_V4 () Bool)
(declare-fun R_S2_V5 () Bool)
(declare-fun R_S2_V1 () Bool)
(declare-fun R_S1_V2 () Bool)
(declare-fun R_E1_V2 () Bool)
(assert
 (let (($x9046 (not W_S1_V4)))
 (let (($x8825 (not W_S1_V5)))
 (let (($x8757 (not W_S1_V3)))
 (let (($x9602 (and $x8757 $x8825 $x9046)))
 (let (($x9385 (not W_S2_V2)))
 (let (($x9278 (and $x9385 (not W_S2_V1))))
 (let
 (($x9741
   (or $x9278 $x9602 (and (not R_S1_V4) (not R_S1_V1) $x8757 $x8825)
   (and (not R_S1_V3) (not R_S1_V1) $x8825 $x9046)
   (and (not R_S1_V4) (not R_S1_V3) (not R_S1_V1) $x8825)
   (and (not R_S1_V5) (not R_S1_V1) $x8757 $x9046)
   (and (not R_S1_V5) (not R_S1_V4) (not R_S1_V1) $x8757)
   (and (not R_S1_V5) (not R_S1_V4) (not R_S1_V3) (not R_S1_V1))
   (and (not R_S1_V5) (not R_S1_V3) (not R_S1_V1) $x9046))))
 (let (($x7875 (not W_S1_V1)))
 (let
 (($x8848
   (or (and $x8757 (not W_S1_V2) $x8825 $x9046)
   (and (not R_E1_V5) (not R_E1_V4) (not R_E1_V3) (not W_S1_V2))
   (and (not R_E1_V5) (not R_E1_V3) (not W_S1_V2) $x9046)
   (and (not R_E1_V5) (not R_E1_V4) $x8757 (not W_S1_V2))
   (and (not R_E1_V4) (not R_E1_V3) (not W_S1_V2) $x8825)
   (and (not R_E1_V4) $x8757 (not W_S1_V2) $x8825)
   (and (not R_E1_V5) $x8757 (not W_S1_V2) $x9046)
   (and (not R_E1_V3) (not W_S1_V2) $x8825 $x9046))))
 (let (($x1018 (not R_E1_V1))) (and $x1018 $x8848 $x7875 $x9741))))))))))))
(assert
 (forall
  ((V5_0 Int) (V4_0 Int) (V3_0 Int) 
   (V2_0 Int) (V1_0 Int) (S2_V2_!3062 Int) 
   (S2_V2_!3072 Int) (S2_V2_!3084 Int) 
   (S2_V2_!3089 Int) (S2_V3_!3061 Int) 
   (S2_V3_!3071 Int) (S2_V3_!3083 Int) 
   (S2_V3_!3088 Int) (S1_V5_!3054 Int) 
   (S1_V5_!3064 Int) (S1_V5_!3075 Int) 
   (E1_!3053 Int) (E1_!3074 Int) 
   (E1_!3080 Int) (S1_V4_!3055 Int) 
   (S1_V4_!3065 Int) (S1_V4_!3076 Int) 
   (S2_V4_!3060 Int) (S2_V4_!3070 Int) 
   (S2_V4_!3082 Int) (S2_V4_!3087 Int) 
   (S2_V5_!3059 Int) (S2_V5_!3069 Int) 
   (S2_V5_!3081 Int) (S2_V5_!3086 Int) 
   (S1_V1_!3058 Int) (S1_V1_!3068 Int) 
   (S1_V1_!3079 Int) (S1_V3_!3056 Int) 
   (S1_V3_!3066 Int) (S1_V3_!3077 Int) 
   (S1_V2_!3057 Int) (S1_V2_!3067 Int) 
   (S1_V2_!3078 Int) (S2_V1_!3063 Int) 
   (S2_V1_!3073 Int) (S2_V1_!3085 Int) 
   (S2_V1_!3090 Int))
  (let ((?x9198 (ite W_S2_V1 S2_V1_!3085 E1_!3080)))
  (let ((?x7536 (+ 1 ?x9198)))
  (let ((?x7601 (ite W_S2_V1 S2_V1_!3090 ?x7536)))
  (let ((?x9098 (ite W_S1_V1 S1_V1_!3058 E1_!3053)))
  (let ((?x8612 (ite W_S2_V1 S2_V1_!3063 ?x9098)))
  (let ((?x9162 (+ 1 ?x8612)))
  (let ((?x7588 (ite W_S1_V1 S1_V1_!3068 ?x9162)))
  (let ((?x8836 (ite W_S2_V1 S2_V1_!3073 ?x7588)))
  (let (($x7957 (= ?x8836 ?x7601)))
  (let ((?x9011 (ite W_S1_V2 S1_V2_!3078 V2_0)))
  (let ((?x8304 (ite W_S2_V2 S2_V2_!3089 ?x9011)))
  (let ((?x9210 (ite W_S1_V2 S1_V2_!3057 V2_0)))
  (let ((?x9129 (ite W_S2_V2 S2_V2_!3062 ?x9210)))
  (let ((?x9066 (ite W_S1_V2 S1_V2_!3067 ?x9129)))
  (let ((?x8876 (ite W_S2_V2 S2_V2_!3072 ?x9066)))
  (let (($x7128 (= ?x8876 ?x8304)))
  (let ((?x9572 (ite W_S1_V3 S1_V3_!3056 V3_0)))
  (let ((?x9528 (ite W_S2_V3 S2_V3_!3061 ?x9572)))
  (let ((?x9625 (ite W_S1_V3 S1_V3_!3066 ?x9528)))
  (let
  (($x9238
    (= (ite W_S2_V3 S2_V3_!3071 ?x9625)
    (ite W_S2_V3 S2_V3_!3088 (ite W_S1_V3 S1_V3_!3077 V3_0)))))
  (let ((?x9484 (ite W_S1_V4 S1_V4_!3055 V4_0)))
  (let ((?x7866 (ite W_S2_V4 S2_V4_!3060 ?x9484)))
  (let ((?x9513 (ite W_S1_V4 S1_V4_!3065 ?x7866)))
  (let
  (($x9401
    (= (ite W_S2_V4 S2_V4_!3070 ?x9513)
    (ite W_S2_V4 S2_V4_!3087 (ite W_S1_V4 S1_V4_!3076 V4_0)))))
  (let ((?x9595 (ite W_S1_V5 S1_V5_!3054 V5_0)))
  (let ((?x8969 (ite W_S2_V5 S2_V5_!3059 ?x9595)))
  (let ((?x9030 (ite W_S1_V5 S1_V5_!3064 ?x8969)))
  (let
  (($x9293
    (= (ite W_S2_V5 S2_V5_!3069 ?x9030)
    (ite W_S2_V5 S2_V5_!3086 (ite W_S1_V5 S1_V5_!3075 V5_0)))))
  (let
  (($x9470
    (and (not (<= ?x9129 ?x9162)) 
    (>= ?x8836 (+ (- 1) ?x8876)) 
    (not (<= V2_0 E1_!3074))
    (>= (ite W_S1_V1 S1_V1_!3079 E1_!3074) (+ (- 1) ?x9011))
    (not (<= ?x9011 E1_!3080))
    (not (<= (ite W_S2_V2 S2_V2_!3084 ?x9011) ?x7536))
    (>= ?x7601 (+ (- 1) ?x8304)))))
  (let (($x1361 (not R_S2_V2)))
  (let (($x9621 (or $x1361 (= (ite W_S2_V2 S2_V2_!3084 ?x9011) ?x9011))))
  (let ((?x7139 (ite W_S1_V3 S1_V3_!3077 V3_0)))
  (let ((?x9534 (ite W_S2_V3 S2_V3_!3083 ?x7139)))
  (let (($x1357 (not R_S2_V3)))
  (let (($x8777 (or $x1357 (= ?x9534 ?x7139))))
  (let ((?x9433 (ite W_S1_V4 S1_V4_!3076 V4_0)))
  (let ((?x8925 (ite W_S2_V4 S2_V4_!3082 ?x9433)))
  (let (($x1353 (not R_S2_V4)))
  (let (($x7966 (or $x1353 (= ?x8925 ?x9433))))
  (let ((?x8988 (ite W_S1_V5 S1_V5_!3075 V5_0)))
  (let ((?x8899 (ite W_S2_V5 S2_V5_!3081 ?x8988)))
  (let (($x1349 (not R_S2_V5)))
  (let (($x8611 (or $x1349 (= ?x8899 ?x8988))))
  (let (($x8311 (= S2_V1_!3090 S2_V1_!3063)))
  (let (($x9001 (or $x1361 (= (ite W_S2_V2 S2_V2_!3084 ?x9011) ?x9210))))
  (let (($x6405 (or $x1357 (= ?x9534 ?x9572))))
  (let (($x8714 (or $x1353 (= ?x8925 ?x9484))))
  (let (($x9282 (or $x1349 (= ?x8899 ?x9595))))
  (let
  (($x9288
    (and $x9282 $x8714 $x6405 $x9001
    (or (not R_S2_V1) (= ?x9198 (+ (- 1) ?x9098))))))
  (let (($x9151 (not $x9288)))
  (let (($x8331 (= S2_V1_!3085 S2_V1_!3063)))
  (let (($x1367 (not R_S2_V1)))
  (let (($x8962 (or $x1367 (= E1_!3080 ?x9098))))
  (let (($x8696 (or $x1361 (= ?x9011 ?x9210))))
  (let (($x8992 (or $x1357 (= ?x7139 ?x9572))))
  (let (($x9586 (or $x1353 (= ?x9433 ?x9484))))
  (let (($x9645 (or $x1349 (= ?x8988 ?x9595))))
  (let (($x9235 (not (and $x9645 $x9586 $x8992 $x8696 $x8962))))
  (let (($x6622 (= S2_V1_!3073 S2_V1_!3090)))
  (let (($x9358 (or $x1361 (= ?x9066 (ite W_S2_V2 S2_V2_!3084 ?x9011)))))
  (let (($x8358 (or $x1357 (= ?x9625 ?x9534))))
  (let (($x9491 (or $x1353 (= ?x9513 ?x8925))))
  (let (($x9496 (or $x1349 (= ?x9030 ?x8899))))
  (let
  (($x9181
    (not (and $x9496 $x9491 $x8358 $x9358 (or $x1367 (= ?x7588 ?x7536))))))
  (let (($x9322 (= S2_V1_!3073 S2_V1_!3085)))
  (let (($x8815 (= ?x7588 E1_!3080)))
  (let (($x8733 (or $x1367 $x8815)))
  (let (($x9395 (or $x1361 (= ?x9066 ?x9011))))
  (let (($x7655 (or $x1357 (= ?x9625 ?x7139))))
  (let (($x9699 (or $x1353 (= ?x9513 ?x9433))))
  (let (($x9632 (or $x1349 (= ?x9030 ?x8988))))
  (let (($x8803 (= S2_V1_!3073 S2_V1_!3063)))
  (let (($x9362 (= ?x7588 ?x9098)))
  (let (($x7923 (or $x1367 $x9362)))
  (let (($x9158 (or $x1361 (= ?x9066 ?x9210))))
  (let (($x9004 (or $x1357 (= ?x9625 ?x9572))))
  (let (($x9631 (or $x1353 (= ?x9513 ?x9484))))
  (let (($x9255 (or $x1349 (= ?x9030 ?x9595))))
  (let (($x8936 (not (and $x9255 $x9631 $x9004 $x9158 $x7923))))
  (let (($x9316 (= S1_V2_!3078 S1_V2_!3067)))
  (let (($x1094 (not R_S1_V2)))
  (let (($x8248 (or $x1094 (= V2_0 ?x9129))))
  (let (($x1092 (not R_S1_V3)))
  (let (($x9454 (or $x1092 (= V3_0 ?x9528))))
  (let (($x1090 (not R_S1_V4)))
  (let (($x8296 (or $x1090 (= V4_0 ?x7866))))
  (let (($x1088 (not R_S1_V5)))
  (let (($x8726 (or $x1088 (= V5_0 ?x8969))))
  (let
  (($x9112
    (not
    (and $x8726 $x8296 $x9454 $x8248 (or (not R_S1_V1) (= E1_!3074 ?x9162))))))
  (let (($x9024 (= S1_V2_!3057 S1_V2_!3078)))
  (let (($x7676 (= S1_V3_!3077 S1_V3_!3056)))
  (let (($x9020 (= S1_V1_!3058 S1_V1_!3079)))
  (let (($x8993 (= S1_V4_!3076 S1_V4_!3055)))
  (let (($x9600 (= E1_!3080 E1_!3053)))
  (let (($x1043 (not R_E1_V2)))
  (let (($x8699 (or $x1043 (= ?x9011 V2_0))))
  (let (($x1041 (not R_E1_V3)))
  (let (($x8398 (or $x1041 (= ?x7139 V3_0))))
  (let (($x1039 (not R_E1_V4)))
  (let (($x9222 (or $x1039 (= ?x9433 V4_0))))
  (let (($x1037 (not R_E1_V5)))
  (let (($x9196 (or $x1037 (= ?x8988 V5_0))))
  (let
  (($x9451
    (and $x9196 $x9222 $x8398 $x8699
    (or (not R_E1_V1) (= (ite W_S1_V1 S1_V1_!3079 E1_!3074) (+ (- 1) V1_0))))))
  (let (($x8999 (= E1_!3074 E1_!3053)))
  (let (($x7980 (= S1_V5_!3075 S1_V5_!3054)))
  (let (($x8926 (= S1_V5_!3064 S1_V5_!3075)))
  (let (($x9136 (or $x1094 (= ?x9129 V2_0))))
  (let (($x9574 (or $x1092 (= ?x9528 V3_0))))
  (let (($x9145 (or $x1090 (= ?x7866 V4_0))))
  (let (($x9180 (or $x1088 (= ?x8969 V5_0))))
  (let
  (($x8654
    (and $x9180 $x9145 $x9574 $x9136
    (or (not R_S1_V1) (= ?x8612 (+ (- 1) E1_!3074))))))
  (let (($x9564 (= S2_V3_!3088 S2_V3_!3071)))
  (let (($x7143 (or $x1361 (= (ite W_S2_V2 S2_V2_!3084 ?x9011) ?x9066))))
  (let (($x8326 (or $x1357 (= ?x9534 ?x9625))))
  (let (($x7575 (or $x1353 (= ?x8925 ?x9513))))
  (let (($x7926 (or $x1349 (= ?x8899 ?x9030))))
  (let
  (($x8333
    (or
    (not
    (and $x7926 $x7575 $x8326 $x7143 (or $x1367 (= ?x9198 (+ (- 1) ?x7588)))))
    $x9564)))
  (let (($x8980 (= S2_V3_!3083 S2_V3_!3071)))
  (let (($x8889 (or $x1367 (= E1_!3080 ?x7588))))
  (let (($x9003 (or $x1361 (= ?x9011 ?x9066))))
  (let (($x6830 (or $x1357 (= ?x7139 ?x9625))))
  (let (($x9049 (or $x1353 (= ?x9433 ?x9513))))
  (let (($x8898 (or $x1349 (= ?x8988 ?x9030))))
  (let (($x9147 (= S2_V2_!3084 S2_V2_!3089)))
  (let (($x9319 (or $x1361 (= ?x9011 (ite W_S2_V2 S2_V2_!3084 ?x9011)))))
  (let (($x8949 (or $x1357 (= ?x7139 ?x9534))))
  (let (($x8284 (or $x1353 (= ?x9433 ?x8925))))
  (let (($x8004 (or $x1349 (= ?x8988 ?x8899))))
  (let (($x9305 (not $x8962)))
  (let (($x8937 (or $x9305 (= S2_V2_!3084 S2_V2_!3062))))
  (let (($x10344 (= S2_V2_!3072 S2_V2_!3062)))
  (let
  (($x10526 (or $x1361 (= (ite W_S1_V2 S1_V2_!3067 S2_V2_!3062) ?x9210))))
  (let (($x10517 (or $x1361 (= ?x9210 S2_V2_!3084))))
  (let (($x10506 (or $x1357 (= ?x9572 ?x9534))))
  (let (($x10513 (or $x1353 (= ?x9484 ?x8925))))
  (let (($x10198 (or $x1349 (= ?x9595 ?x8899))))
  (let
  (($x10458
    (and (not (and $x10198 $x10513 $x10506 $x10517 (= ?x9098 ?x7536)))
    (or (not (and $x9255 $x9631 $x9004 $x10526 $x9362)) $x10344)
    (or $x9181 (= S2_V2_!3072 S2_V2_!3089)) $x8937
    (or (not (and $x8898 $x9049 $x6830 $x9003 $x8889))
    (= S2_V2_!3084 S2_V2_!3072))
    (or
    (not (and $x8004 $x8284 $x8949 $x9319 (or $x1367 (= E1_!3080 ?x7536))))
    $x9147) (or $x8936 (= S2_V3_!3071 S2_V3_!3061))
    (or $x9235 (= S2_V3_!3083 S2_V3_!3061))
    (or (not (and $x8898 $x9049 $x6830 $x9003 $x8889)) $x8980)
    (or (not (and $x9282 $x8714 $x6405 $x1361 $x1367))
    (= S2_V3_!3088 S2_V3_!3061)) $x8333 
    (or (not $x8654) $x8926) $x7980 $x8999 
    (or (not $x9451) $x9600) $x8993 
    (or $x9112 (= S1_V4_!3076 S1_V4_!3065))
    (or $x8936 (= S2_V4_!3070 S2_V4_!3060))
    (or (not (and $x9632 $x9699 $x7655 $x1361 $x8815))
    (= S2_V4_!3070 S2_V4_!3082)) 
    (or $x9181 (= S2_V4_!3070 S2_V4_!3087))
    (or $x9235 (= S2_V4_!3082 S2_V4_!3060))
    (or $x9151 (= S2_V4_!3087 S2_V4_!3060))
    (or $x8936 (= S2_V5_!3069 S2_V5_!3059))
    (or (not (and $x9632 $x9699 $x7655 $x9395 $x8733))
    (= S2_V5_!3069 S2_V5_!3081)) 
    (or $x9181 (= S2_V5_!3069 S2_V5_!3086))
    (or $x9235 (= S2_V5_!3081 S2_V5_!3059))
    (or $x9151 (= S2_V5_!3086 S2_V5_!3059)) $x9020
    (or $x9112 (= S1_V1_!3079 S1_V1_!3068)) $x7676
    (or $x9112 (= S1_V3_!3077 S1_V3_!3066)) $x9024 
    (or $x9112 $x9316) (or $x8936 $x8803)
    (or (not (and $x9632 $x9699 $x7655 $x9395 $x8733)) $x9322)
    (or $x9181 $x6622) (or $x9235 $x8331) 
    (or $x9151 $x8311)
    (not (and $x8611 $x7966 $x8777 $x9621 (= ?x9198 (+ (- 1) E1_!3080)))))))
  (or (not $x10458) (not $x9470) (and $x9293 $x9401 $x9238 $x7128 $x7957)))))))))))))))))))))))))))))))))))))))))))))))))))))))))))))))))))))))))))))))))))))))))))))))))))))))))))))))))))))))))))))))))))))))))))))
(assert
 (let (($x9385 (not W_S2_V2)))
 (let (($x9278 (and $x9385 (not W_S2_V1)))) (not $x9278))))
(assert (not (and (not W_S2_V2) (not W_S2_V4) (not W_S2_V3) (not W_S2_V5))))
(assert
 (let (($x9046 (not W_S1_V4)))
 (let (($x8825 (not W_S1_V5)))
 (let (($x8757 (not W_S1_V3)))
 (let (($x9602 (and $x8757 $x8825 $x9046))) (not $x9602))))))
(assert
 (let (($x10813 (not W_S2_V3)))
 (let (($x10809 (not W_S2_V4)))
 (let (($x9385 (not W_S2_V2)))
 (let (($x1367 (not R_S2_V1)))
 (let (($x1349 (not R_S2_V5)))
 (not (and $x1349 $x1367 $x9385 $x10809 $x10813))))))))
(assert
 (let (($x10813 (not W_S2_V3)))
 (let (($x10809 (not W_S2_V4)))
 (let (($x9385 (not W_S2_V2)))
 (let (($x8825 (not W_S1_V5)))
 (let (($x1088 (not R_S1_V5)))
 (not (and $x1088 $x8825 $x9385 $x10809 $x10813))))))))
(assert
 (let (($x10829 (not W_S2_V5)))
 (let (($x9385 (not W_S2_V2)))
 (let (($x1367 (not R_S2_V1)))
 (let (($x1357 (not R_S2_V3)))
 (let (($x1353 (not R_S2_V4)))
 (not (and $x1353 $x1357 $x1367 $x9385 $x10829))))))))
(assert
 (let (($x9385 (not W_S2_V2)))
 (let (($x1367 (not R_S2_V1)))
 (let (($x1357 (not R_S2_V3)))
 (let (($x1353 (not R_S2_V4)))
 (let (($x1349 (not R_S2_V5)))
 (not (and $x1349 $x1353 $x1357 $x1367 $x9385))))))))
(assert
 (let (($x10809 (not W_S2_V4)))
 (let (($x9385 (not W_S2_V2)))
 (let (($x8825 (not W_S1_V5)))
 (let (($x8757 (not W_S1_V3)))
 (let (($x1092 (not R_S1_V3)))
 (let (($x1088 (not R_S1_V5)))
 (not (and $x1088 $x1092 $x8757 $x8825 $x9385 $x10809)))))))))
(assert
 (let (($x10829 (not W_S2_V5)))
 (let (($x10809 (not W_S2_V4)))
 (let (($x9385 (not W_S2_V2)))
 (let (($x9046 (not W_S1_V4)))
 (let (($x8825 (not W_S1_V5)))
 (let (($x1357 (not R_S2_V3)))
 (not (and $x1357 $x8825 $x9046 $x9385 $x10809 $x10829)))))))))
(assert
 (let (($x10829 (not W_S2_V5)))
 (let (($x10809 (not W_S2_V4)))
 (let (($x9385 (not W_S2_V2)))
 (let (($x1357 (not R_S2_V3)))
 (let (($x1092 (not R_S1_V3)))
 (not (and $x1092 $x1357 $x9385 $x10809 $x10829))))))))
(assert
 (let (($x10809 (not W_S2_V4)))
 (let (($x9385 (not W_S2_V2)))
 (let (($x8825 (not W_S1_V5)))
 (let (($x1357 (not R_S2_V3)))
 (let (($x1092 (not R_S1_V3)))
 (let (($x1088 (not R_S1_V5)))
 (not (and $x1088 $x1092 $x1357 $x8825 $x9385 $x10809)))))))))
(assert
 (let (($x10809 (not W_S2_V4)))
 (let (($x9385 (not W_S2_V2)))
 (let (($x1367 (not R_S2_V1)))
 (let (($x1349 (not R_S2_V5)))
 (let (($x1092 (not R_S1_V3)))
 (let (($x1088 (not R_S1_V5)))
 (not (and $x1088 $x1092 $x1349 $x1367 $x9385 $x10809)))))))))
(assert
 (let (($x10809 (not W_S2_V4)))
 (let (($x9385 (not W_S2_V2)))
 (let (($x1367 (not R_S2_V1)))
 (let (($x1357 (not R_S2_V3)))
 (let (($x1349 (not R_S2_V5)))
 (not (and $x1349 $x1357 $x1367 $x9385 $x10809))))))))
(assert
 (let (($x10829 (not W_S2_V5)))
 (let (($x10813 (not W_S2_V3)))
 (let (($x9385 (not W_S2_V2)))
 (let (($x1367 (not R_S2_V1)))
 (let (($x1090 (not R_S1_V4)))
 (not (and $x1090 $x1367 $x9385 $x10813 $x10829))))))))
(assert
 (let (($x10829 (not W_S2_V5)))
 (let (($x9385 (not W_S2_V2)))
 (let (($x1367 (not R_S2_V1)))
 (let (($x1357 (not R_S2_V3)))
 (let (($x1092 (not R_S1_V3)))
 (let (($x1090 (not R_S1_V4)))
 (not (and $x1090 $x1092 $x1357 $x1367 $x9385 $x10829)))))))))
(assert
 (let (($x10813 (not W_S2_V3)))
 (let (($x9385 (not W_S2_V2)))
 (let (($x9046 (not W_S1_V4)))
 (let (($x8757 (not W_S1_V3)))
 (let (($x1349 (not R_S2_V5)))
 (let (($x1090 (not R_S1_V4)))
 (not (and $x1090 $x1349 $x8757 $x9046 $x9385 $x10813)))))))))
(assert
 (let (($x10813 (not W_S2_V3)))
 (let (($x9385 (not W_S2_V2)))
 (let (($x9046 (not W_S1_V4)))
 (let (($x1349 (not R_S2_V5)))
 (let (($x1090 (not R_S1_V4)))
 (let (($x1088 (not R_S1_V5)))
 (not (and $x1088 $x1090 $x1349 $x9046 $x9385 $x10813)))))))))
(assert
 (let (($x10813 (not W_S2_V3)))
 (let (($x9385 (not W_S2_V2)))
 (let (($x1353 (not R_S2_V4)))
 (let (($x1349 (not R_S2_V5)))
 (let (($x1090 (not R_S1_V4)))
 (let (($x1088 (not R_S1_V5)))
 (not (and $x1088 $x1090 $x1349 $x1353 $x9385 $x10813)))))))))
(assert
 (let (($x9385 (not W_S2_V2)))
 (let (($x8825 (not W_S1_V5)))
 (let (($x8757 (not W_S1_V3)))
 (let (($x1367 (not R_S2_V1)))
 (let (($x1357 (not R_S2_V3)))
 (let (($x1349 (not R_S2_V5)))
 (let (($x1092 (not R_S1_V3)))
 (let (($x1088 (not R_S1_V5)))
 (not (and $x1088 $x1092 $x1349 $x1357 $x1367 $x8757 $x8825 $x9385)))))))))))
(assert
 (let (($x10813 (not W_S2_V3)))
 (let (($x9385 (not W_S2_V2)))
 (let (($x1367 (not R_S2_V1)))
 (let (($x1349 (not R_S2_V5)))
 (let (($x1090 (not R_S1_V4)))
 (let (($x1088 (not R_S1_V5)))
 (not (and $x1088 $x1090 $x1349 $x1367 $x9385 $x10813)))))))))
(assert
 (let (($x9385 (not W_S2_V2)))
 (let (($x1367 (not R_S2_V1)))
 (let (($x1357 (not R_S2_V3)))
 (let (($x1349 (not R_S2_V5)))
 (let (($x1092 (not R_S1_V3)))
 (let (($x1090 (not R_S1_V4)))
 (let (($x1088 (not R_S1_V5)))
 (not (and $x1088 $x1090 $x1092 $x1349 $x1357 $x1367 $x9385))))))))))
(assert (not (and W_S2_V5 (not R_S2_V5) (not W_S1_V3) (not W_S1_V4))))
(assert (not (and W_S2_V3 (not R_S2_V3) (not W_S1_V5) (not W_S1_V4))))
(assert
 (let (($x9385 (not W_S2_V2)))
 (let (($x9046 (not W_S1_V4)))
 (let (($x8825 (not W_S1_V5)))
 (let (($x1367 (not R_S2_V1)))
 (let (($x1353 (not R_S2_V4)))
 (let (($x1349 (not R_S2_V5)))
 (let (($x1090 (not R_S1_V4)))
 (let (($x1088 (not R_S1_V5)))
 (not (and $x1088 $x1090 $x1349 $x1353 $x1367 $x8825 $x9046 $x9385)))))))))))
(assert
 (let (($x10829 (not W_S2_V5)))
 (let (($x9385 (not W_S2_V2)))
 (let (($x9046 (not W_S1_V4)))
 (let (($x8825 (not W_S1_V5)))
 (let (($x1367 (not R_S2_V1)))
 (let (($x1353 (not R_S2_V4)))
 (let (($x1090 (not R_S1_V4)))
 (not (and $x1090 $x1353 $x1367 $x8825 $x9046 $x9385 $x10829))))))))))
(assert
 (let (($x10813 (not W_S2_V3)))
 (let (($x9385 (not W_S2_V2)))
 (let (($x1367 (not R_S2_V1)))
 (let (($x1353 (not R_S2_V4)))
 (let (($x1349 (not R_S2_V5)))
 (not (and $x1349 $x1353 $x1367 $x9385 $x10813))))))))
(assert
 (let (($x10829 (not W_S2_V5)))
 (let (($x10809 (not W_S2_V4)))
 (let (($x9385 (not W_S2_V2)))
 (let (($x9046 (not W_S1_V4)))
 (let (($x8825 (not W_S1_V5)))
 (let (($x1367 (not R_S2_V1)))
 (not (and $x1367 $x8825 $x9046 $x9385 $x10809 $x10829)))))))))
(assert
 (let (($x10829 (not W_S2_V5)))
 (let (($x9385 (not W_S2_V2)))
 (let (($x9046 (not W_S1_V4)))
 (let (($x8757 (not W_S1_V3)))
 (let (($x1092 (not R_S1_V3)))
 (let (($x1090 (not R_S1_V4)))
 (not (and $x1090 $x1092 $x8757 $x9046 $x9385 $x10829)))))))))
(assert
 (let (($x10829 (not W_S2_V5)))
 (let (($x9385 (not W_S2_V2)))
 (let (($x1367 (not R_S2_V1)))
 (let (($x1353 (not R_S2_V4)))
 (let (($x1092 (not R_S1_V3)))
 (let (($x1090 (not R_S1_V4)))
 (not (and $x1090 $x1092 $x1353 $x1367 $x9385 $x10829)))))))))
(assert
 (let (($x9385 (not W_S2_V2)))
 (let (($x1367 (not R_S2_V1)))
 (let (($x1353 (not R_S2_V4)))
 (let (($x1349 (not R_S2_V5)))
 (let (($x1092 (not R_S1_V3)))
 (let (($x1090 (not R_S1_V4)))
 (let (($x1088 (not R_S1_V5)))
 (not (and $x1088 $x1090 $x1092 $x1349 $x1353 $x1367 $x9385))))))))))
(assert
 (let (($x10829 (not W_S2_V5)))
 (let (($x10813 (not W_S2_V3)))
 (let (($x9385 (not W_S2_V2)))
 (let (($x9046 (not W_S1_V4)))
 (let (($x1090 (not R_S1_V4)))
 (not (and $x1090 $x9046 $x9385 $x10813 $x10829))))))))
(assert
 (let (($x10829 (not W_S2_V5)))
 (let (($x10813 (not W_S2_V3)))
 (let (($x9385 (not W_S2_V2)))
 (let (($x8825 (not W_S1_V5)))
 (let (($x8757 (not W_S1_V3)))
 (let (($x1353 (not R_S2_V4)))
 (not (and $x1353 $x8757 $x8825 $x9385 $x10813 $x10829)))))))))
(assert (not (and W_S2_V4 (not R_S2_V4) (not W_S1_V3) (not W_S1_V5))))
(assert
 (let (($x10829 (not W_S2_V5)))
 (let (($x10813 (not W_S2_V3)))
 (let (($x9385 (not W_S2_V2)))
 (let (($x1353 (not R_S2_V4)))
 (let (($x1090 (not R_S1_V4)))
 (not (and $x1090 $x1353 $x9385 $x10813 $x10829))))))))
(assert
 (let (($x10829 (not W_S2_V5)))
 (let (($x10813 (not W_S2_V3)))
 (let (($x9385 (not W_S2_V2)))
 (let (($x1367 (not R_S2_V1)))
 (let (($x1353 (not R_S2_V4)))
 (not (and $x1353 $x1367 $x9385 $x10813 $x10829))))))))
(assert
 (let (($x9385 (not W_S2_V2)))
 (let (($x9046 (not W_S1_V4)))
 (let (($x8757 (not W_S1_V3)))
 (let (($x1367 (not R_S2_V1)))
 (let (($x1357 (not R_S2_V3)))
 (let (($x1353 (not R_S2_V4)))
 (let (($x1092 (not R_S1_V3)))
 (let (($x1090 (not R_S1_V4)))
 (not (and $x1090 $x1092 $x1353 $x1357 $x1367 $x8757 $x9046 $x9385)))))))))))
(assert
 (let (($x10813 (not W_S2_V3)))
 (let (($x9385 (not W_S2_V2)))
 (let (($x9046 (not W_S1_V4)))
 (let (($x8757 (not W_S1_V3)))
 (let (($x1367 (not R_S2_V1)))
 (let (($x1353 (not R_S2_V4)))
 (let (($x1090 (not R_S1_V4)))
 (not (and $x1090 $x1353 $x1367 $x8757 $x9046 $x9385 $x10813))))))))))
(assert
 (let (($x10813 (not W_S2_V3)))
 (let (($x9385 (not W_S2_V2)))
 (let (($x1367 (not R_S2_V1)))
 (let (($x1353 (not R_S2_V4)))
 (let (($x1090 (not R_S1_V4)))
 (let (($x1088 (not R_S1_V5)))
 (not (and $x1088 $x1090 $x1353 $x1367 $x9385 $x10813)))))))))
(assert
 (let (($x10813 (not W_S2_V3)))
 (let (($x9385 (not W_S2_V2)))
 (let (($x1367 (not R_S2_V1)))
 (not (and W_S1_V4 W_S1_V5 $x1367 $x9385 $x10813))))))
(assert
 (let (($x10813 (not W_S2_V3)))
 (let (($x10809 (not W_S2_V4)))
 (let (($x9385 (not W_S2_V2)))
 (let (($x9046 (not W_S1_V4)))
 (let (($x8757 (not W_S1_V3)))
 (let (($x1367 (not R_S2_V1)))
 (not (and $x1367 $x8757 $x9046 $x9385 $x10809 $x10813)))))))))
(assert
 (let (($x10813 (not W_S2_V3)))
 (let (($x10809 (not W_S2_V4)))
 (let (($x9385 (not W_S2_V2)))
 (let (($x1367 (not R_S2_V1)))
 (let (($x1088 (not R_S1_V5)))
 (not (and $x1088 $x1367 $x9385 $x10809 $x10813))))))))
(assert
 (let (($x10813 (not W_S2_V3)))
 (let (($x9385 (not W_S2_V2)))
 (let (($x9046 (not W_S1_V4)))
 (let (($x8825 (not W_S1_V5)))
 (let (($x1090 (not R_S1_V4)))
 (let (($x1088 (not R_S1_V5)))
 (not (and $x1088 $x1090 $x8825 $x9046 $x9385 $x10813)))))))))
(assert (not (and (not R_S1_V2) (not W_S2_V4) (not W_S2_V3) (not W_S2_V5))))
(assert
 (let (($x10813 (not W_S2_V3)))
 (let (($x10809 (not W_S2_V4)))
 (let (($x8825 (not W_S1_V5)))
 (let (($x1094 (not R_S1_V2)))
 (let (($x1088 (not R_S1_V5)))
 (not (and $x1088 $x1094 $x8825 $x10809 $x10813))))))))
(assert
 (let (($x9385 (not W_S2_V2)))
 (let (($x1367 (not R_S2_V1)))
 (let (($x1349 (not R_S2_V5)))
 (let (($x1088 (not R_S1_V5)))
 (not (and W_S1_V4 W_S1_V3 $x1088 $x1349 $x1367 $x9385)))))))
(assert
 (let (($x10829 (not W_S2_V5)))
 (let (($x10813 (not W_S2_V3)))
 (let (($x1353 (not R_S2_V4)))
 (let (($x1094 (not R_S1_V2)))
 (let (($x1090 (not R_S1_V4)))
 (not (and $x1090 $x1094 $x1353 $x10813 $x10829))))))))
(assert
 (let (($x10829 (not W_S2_V5)))
 (let (($x1357 (not R_S2_V3)))
 (let (($x1353 (not R_S2_V4)))
 (let (($x1094 (not R_S1_V2)))
 (let (($x1092 (not R_S1_V3)))
 (let (($x1090 (not R_S1_V4)))
 (not (and $x1090 $x1092 $x1094 $x1353 $x1357 $x10829)))))))))
(assert
 (let (($x10809 (not W_S2_V4)))
 (let (($x9385 (not W_S2_V2)))
 (let (($x9046 (not W_S1_V4)))
 (let (($x8757 (not W_S1_V3)))
 (let (($x1367 (not R_S2_V1)))
 (let (($x1357 (not R_S2_V3)))
 (let (($x1092 (not R_S1_V3)))
 (not (and $x1092 $x1357 $x1367 $x8757 $x9046 $x9385 $x10809))))))))))
(assert
 (let (($x10809 (not W_S2_V4)))
 (let (($x9385 (not W_S2_V2)))
 (let (($x1367 (not R_S2_V1)))
 (let (($x1357 (not R_S2_V3)))
 (let (($x1092 (not R_S1_V3)))
 (let (($x1088 (not R_S1_V5)))
 (not (and $x1088 $x1092 $x1357 $x1367 $x9385 $x10809)))))))))
(assert
 (let (($x10829 (not W_S2_V5)))
 (let (($x10809 (not W_S2_V4)))
 (let (($x9385 (not W_S2_V2)))
 (let (($x1367 (not R_S2_V1)))
 (let (($x1357 (not R_S2_V3)))
 (not (and $x1357 $x1367 $x9385 $x10809 $x10829))))))))
(assert
 (let (($x10829 (not W_S2_V5)))
 (let (($x10809 (not W_S2_V4)))
 (let (($x9385 (not W_S2_V2)))
 (let (($x8757 (not W_S1_V3)))
 (let (($x1092 (not R_S1_V3)))
 (not (and $x1092 $x8757 $x9385 $x10809 $x10829))))))))
(assert
 (let (($x10829 (not W_S2_V5)))
 (let (($x10809 (not W_S2_V4)))
 (let (($x9385 (not W_S2_V2)))
 (let (($x1367 (not R_S2_V1)))
 (let (($x1092 (not R_S1_V3)))
 (not (and $x1092 $x1367 $x9385 $x10809 $x10829))))))))
(assert
 (let (($x9385 (not W_S2_V2)))
 (let (($x1367 (not R_S2_V1)))
 (let (($x1353 (not R_S2_V4)))
 (let (($x1090 (not R_S1_V4)))
 (not (and W_S1_V5 W_S1_V3 $x1090 $x1353 $x1367 $x9385)))))))
(assert (not (and W_S1_V4 W_S1_V5 W_S1_V3 (not R_S2_V1) (not W_S2_V2))))
(assert
 (let (($x10809 (not W_S2_V4)))
 (let (($x9385 (not W_S2_V2)))
 (let (($x1367 (not R_S2_V1)))
 (not (and W_S1_V5 W_S1_V3 $x1367 $x9385 $x10809))))))
(check-sat)
(exit)

